30.91/31.01	c Solved by SCIP
30.91/31.01	c Using COMiniSatPS SAT solver by Chanseok Oh (2016)
30.91/31.01	c Using SCIP solver, version 8.0.0, https://www.scipopt.org
30.91/31.01	c Starting SCIP solver  (with time-limit = 600s) ...
30.91/31.01	s UNKNOWN
